Route #1: 28 69 1 50 76 77 68 80 12 26 40 58 53
Route #2: 54 55 25 24 29 78 34 35 65 71 9 51 81 33 79 3
Route #3: 21 73 72 74 22 75 56 23 67 39 4
Route #4: 41 13 94 95 97 92 37 100 98 59 99 5 84 17 60
Route #5: 52 88 7 82 48 64 49 36 47 46 8 45 83 18
Route #6: 70 30 20 66 32 90 63 11 19 62 10 31
Route #7: 61 16 86 44 38 14 91 85 93 96
Route #8: 2 57 15 43 42 87 6 89 27
Cost 916
